
List of user-set options:

                                    Name   Value                used
                acceptable_compl_inf_tol = 0.001                 yes
              acceptable_constr_viol_tol = 1e-05                 yes
                 acceptable_dual_inf_tol = 100                   yes
                         acceptable_iter = 15                    yes
               acceptable_obj_change_tol = 0.001                 yes
                          acceptable_tol = 10                    yes
                      bound_relax_factor = 1e-12                 yes
                           compl_inf_tol = 1e-06                 yes
                         constr_viol_tol = 1e-06                 yes
                         derivative_test = first-order           yes
            derivative_test_perturbation = 1e-07                 yes
                            dual_inf_tol = 100000                yes
               expect_infeasible_problem = no                    yes
                        file_print_level = 5                     yes
                   hessian_approximation = limited-memory        yes
                           linear_solver = mumps                 yes
                                max_iter = 3000                  yes
                             mu_strategy = adaptive              yes
                nlp_scaling_max_gradient = 100                   yes
                      nlp_scaling_method = gradient-based        yes
                        option_file_name =                        no
                             output_file = fitter-ipopt.log      yes
                             print_level = 5                     yes
             print_options_documentation = no                    yes
                      print_user_options = yes                   yes
                        start_with_resto = no                    yes
                                     tol = 0.001                 yes

******************************************************************************
This program contains Ipopt, a library for large-scale nonlinear optimization.
 Ipopt is released as open source code under the Eclipse Public License (EPL).
         For more information visit http://projects.coin-or.org/Ipopt
******************************************************************************

This is Ipopt version 3.11.9, running with linear solver mumps.
NOTE: Other linear solvers might be more efficient (see Ipopt documentation).

Starting derivative checker for first derivatives.


No errors detected by derivative checker.

Number of nonzeros in equality constraint Jacobian...:        0
Number of nonzeros in inequality constraint Jacobian.:     1673
Number of nonzeros in Lagrangian Hessian.............:        0

Total number of variables............................:        7
                     variables with only lower bounds:        1
                variables with lower and upper bounds:        0
                     variables with only upper bounds:        0
Total number of equality constraints.................:        0
Total number of inequality constraints...............:      239
        inequality constraints with only lower bounds:        0
   inequality constraints with lower and upper bounds:        0
        inequality constraints with only upper bounds:      239

iter    objective    inf_pr   inf_du lg(mu)  ||d||  lg(rg) alpha_du alpha_pr  ls
   0  1.1396087e-02 1.87e-04 1.00e+00   0.0 0.00e+00    -  0.00e+00 0.00e+00   0
   1  1.2128829e-02 0.00e+00 2.77e-01  -7.6 9.29e-03    -  7.81e-01 1.00e+00h  1
   2  1.2518735e-02 0.00e+00 1.38e-01  -3.3 5.27e-03    -  8.21e-01 1.00e+00h  1
   3  1.2295506e-02 0.00e+00 5.49e-03  -9.0 1.57e-03    -  9.91e-01 1.00e+00h  1
   4  1.0753822e-02 0.00e+00 1.04e-02 -10.6 1.34e-02    -  1.00e+00 8.61e-01h  1
   5  1.0736144e-02 5.62e-05 2.76e-02  -5.4 9.75e-03    -  9.31e-01 7.68e-01h  1
   6  1.0337793e-02 2.25e-05 4.09e-02  -6.0 1.52e-02    -  7.99e-01 4.48e-01h  1
   7  9.7004761e-03 7.03e-04 3.71e-02  -5.4 1.21e-02    -  1.00e+00 1.00e+00h  1
   8  9.3109644e-03 7.37e-04 2.60e-02  -6.0 2.76e-02    -  8.39e-01 3.99e-01h  1
   9  9.2421626e-03 3.50e-04 7.05e-03  -5.4 1.05e-02    -  9.91e-01 1.00e+00h  1
iter    objective    inf_pr   inf_du lg(mu)  ||d||  lg(rg) alpha_du alpha_pr  ls
  10  9.2249062e-03 0.00e+00 6.33e-04  -5.6 2.20e-03    -  1.00e+00 1.00e+00h  1
  11  9.1655328e-03 0.00e+00 5.19e-04  -5.8 1.39e-03    -  1.00e+00 1.00e+00h  1
  12  9.1262064e-03 1.80e-05 8.46e-04  -6.4 2.03e-03    -  1.00e+00 9.78e-01h  1
  13  9.1219768e-03 3.08e-06 1.66e-04  -6.7 7.86e-04    -  1.00e+00 1.00e+00h  1
  14  9.1211350e-03 0.00e+00 3.20e-05  -7.1 2.84e-04    -  1.00e+00 1.00e+00h  1

Number of Iterations....: 14

                                   (scaled)                 (unscaled)
Objective...............:   9.1211349951858690e-03    9.1211349951858690e-03
Dual infeasibility......:   3.1982489928738048e-05    3.1982489928738048e-05
Constraint violation....:   0.0000000000000000e+00    0.0000000000000000e+00
Complementarity.........:   1.3141005490426934e-07    1.3141005490426934e-07
Overall NLP error.......:   3.1982489928738048e-05    3.1982489928738048e-05


Number of objective function evaluations             = 15
Number of objective gradient evaluations             = 15
Number of equality constraint evaluations            = 0
Number of inequality constraint evaluations          = 15
Number of equality constraint Jacobian evaluations   = 0
Number of inequality constraint Jacobian evaluations = 15
Number of Lagrangian Hessian evaluations             = 0
Total CPU secs in IPOPT (w/o function evaluations)   =      0.187
Total CPU secs in NLP function evaluations           =      0.019

EXIT: Optimal Solution Found.
